
Gurobi 9.5.1 (mac64[x86], gurobi_cl) logging started Wed Sep 18 09:25:40 2024

Set parameter Username
Set parameter LogFile to value "gurobi.log"
Academic license - for non-commercial use only - expires 2025-09-17
Using license file /Users/fredericbusch/gurobi.lic

Gurobi 9.5.1 (mac64[x86], gurobi_cl) logging started Wed Sep 18 09:25:45 2024

Set parameter Username
Set parameter LogFile to value "gurobi.log"
Academic license - for non-commercial use only - expires 2025-09-17
Using license file /Users/fredericbusch/gurobi.lic

Gurobi 9.5.1 (mac64[x86], gurobi_cl) logging started Wed Sep 18 09:26:34 2024

Set parameter Username
Set parameter LogFile to value "gurobi.log"
Academic license - for non-commercial use only - expires 2025-09-17
Using license file /Users/fredericbusch/gurobi.lic

Gurobi 9.5.1 (mac64[x86], gurobi_cl) logging started Wed Sep 18 09:26:55 2024

Set parameter Username
Set parameter LogFile to value "gurobi.log"
Academic license - for non-commercial use only - expires 2025-09-17
Using license file /Users/fredericbusch/gurobi.lic

Gurobi 9.5.1 (mac64[x86], gurobi_cl) logging started Wed Sep 18 09:27:00 2024

Set parameter Username
Set parameter LogFile to value "gurobi.log"
Academic license - for non-commercial use only - expires 2025-09-17
Using license file /Users/fredericbusch/gurobi.lic

Gurobi 9.5.1 (mac64[x86], gurobi_cl) logging started Wed Sep 18 12:45:01 2024

Set parameter Username
Set parameter LogFile to value "gurobi.log"
Academic license - for non-commercial use only - expires 2025-09-17
Using license file /Users/fredericbusch/gurobi.lic

Gurobi 9.5.1 (mac64[x86], gurobi_cl) logging started Wed Sep 18 12:45:51 2024

Set parameter Username
Set parameter LogFile to value "gurobi.log"
Academic license - for non-commercial use only - expires 2025-09-17
Using license file /Users/fredericbusch/gurobi.lic
